80 254746
22 48 45 37 59 63 18 41 64 58 69 23 76 46 56 5 20 70 57 8 52 74 26 47 31 15 28 66 68 19 49 13 40 2 61 53 10 32 51 30 27 9 21 75 72 24 54 14 6 39 71 1 33 80 79 7 77 65 50 35 3 62 34 73 44 11 4 55 25 36 43 16 29 60 78 12 38 42 17 67 
